(set-logic BV) (define-fun hd01 ((x (_ BitVec 32))) (_ BitVec 32) (bvand x (bvsub x #x00000001))) (synth-fun f ((x (_ BitVec 32))) (_ BitVec 32)) (declare-var x (_ BitVec 32)) (constraint (= (hd01 x) (f x))) (check-synth)
